c instance by G2
c solution = 1100011110111111001
c Known solution cost is 892 
p cnf 19 30
w 25 88 79 51 86 74 18 39 35 11 27 62 36 22 86 37 49 67 0
-12 -14 1 0
-4 5 -12 0
5 7 -13 0
5 16 -18 0
-2 -12 6 0
19 -13 -1 0
-16 -12 8 0
14 -13 15 0
-19 17 -5 0
3 -10 -19 0
-19 8 16 0
10 -6 11 0
-17 -11 3 0
17 15 18 0
14 -15 -6 0
10 12 -2 0
14 -18 -7 0
5 8 -7 0
5 2 -14 0
1 6 18 0
-8 9 -14 0
-16 13 -14 0
-6 13 -8 0
-18 -19 -14 0
12 2 -11 0
-8 3 1 0
-6 16 -1 0
5 4 11 0
-3 5 10 0
7 -14 -3 0
